nNurses = 60;
nHours = 38;
minHours = 9;
maxHours = 19;
maxConsec = 14;
maxPresence = 15;
demand = [21, 25, 20, 24, 24, 20, 18, 17, 15, 13, 9, 12, 15, 19, 22, 23, 27, 29, 25, 29, 30, 27, 24, 23, 19, 17, 16, 13, 15, 14, 11, 6, 8, 6, 8, 13, 9, 14];
